10
8,2
5,10
8,1
8,10
10,10
1,10
3,7
4,9
1,5
3,4
9,1
8,1
1,6
7,5
10,4
9,8
10,7
8,3
7,5
8,7
9,5
9,8
3,10
7,10
8,7
6,2
3,10
7,7
3,8
4,7
7,6
2,5
8,3
2,8
6,7
7,2
5,7
7,9
7,10
5,5
1,10
8,9
1,8
7,7
1,5
3,2
7,2
6,8
5,10
1,5
9,1
3,1
8,8
1,1
3,5
2,1
2,10
1,7
1,7
2,6
2,8
2,9
2,1
8,2
1,1
1,2
6,9
9,3
8,2
5,8
10,4
1,10
4,4
7,4
1,3
3,9
7,6
10,6
1,3
5,1
5,6
8,4
5,7
9,3
1,10
3,10
8,8
1,3
10,9
10,2
4,8
6,9
4,5
7,10
6,8
9,5
8,10
2,3
5,5
4,7